Bruniera/ragionamento automatico/progetto/benchmark/asp/mid21.lp
start(0).
limit(6).
n(14).
strada(0,1,2).
strada(0,3,3).
strada(0,4,2).
strada(0,6,18).
strada(0,9,16).
strada(1,2,5).
strada(1,6,8).
strada(1,7,20).
strada(1,9,3).
strada(1,10,20).
strada(1,11,18).
strada(1,12,20).
strada(2,1,0).
strada(2,5,1).
strada(2,6,2).
strada(2,7,18).
strada(2,10,12).
strada(2,13,17).
strada(3,0,6).
strada(3,2,14).
strada(3,4,12).
strada(3,5,13).
strada(3,6,5).
strada(3,8,12).
strada(3,9,4).
strada(3,12,20).
strada(3,13,5).
strada(4,0,19).
strada(4,2,15).
strada(4,3,20).
strada(4,10,2).
strada(4,12,10).
strada(4,13,17).
strada(5,2,17).
strada(5,3,16).
strada(5,8,17).
strada(5,12,3).
strada(5,13,11).
strada(6,0,0).
strada(6,1,15).
strada(6,3,0).
strada(6,5,9).
strada(6,7,13).
strada(6,8,6).
strada(6,9,15).
strada(6,10,20).
strada(7,1,19).
strada(7,3,20).
strada(7,5,13).
strada(8,0,18).
strada(8,1,3).
strada(8,3,20).
strada(8,7,13).
strada(8,12,14).
strada(8,13,9).
strada(9,4,5).
strada(9,5,6).
strada(9,6,17).
strada(9,8,9).
strada(9,12,13).
strada(10,1,14).
strada(10,2,0).
strada(10,3,5).
strada(10,4,1).
strada(10,5,10).
strada(10,6,20).
strada(10,7,6).
strada(10,8,9).
strada(10,9,3).
strada(10,11,19).
strada(10,12,3).
strada(11,2,6).
strada(11,7,7).
strada(11,8,14).
strada(12,2,1).
strada(12,3,16).
strada(12,5,8).
strada(12,7,0).
strada(12,10,7).
strada(12,11,19).
strada(13,1,12).
strada(13,6,3).
strada(13,7,17).
strada(13,10,11).
