Bruniera/ragionamento automatico/progetto/benchmark/minizinc/mid21.dzn
start = 1;
limit = 6;
n = 14;
m=[|-1,2,-1,3,2,-1,18,-1,-1,16,-1,-1,-1,-1,
|-1,-1,5,-1,-1,-1,8,20,-1,3,20,18,20,-1,
|-1,0,-1,-1,-1,1,2,18,-1,-1,12,-1,-1,17,
|6,-1,14,-1,12,13,5,-1,12,4,-1,-1,20,5,
|19,-1,15,20,-1,-1,-1,-1,-1,-1,2,-1,10,17,
|-1,-1,17,16,-1,-1,-1,-1,17,-1,-1,-1,3,11,
|0,15,-1,0,-1,9,-1,13,6,15,20,-1,-1,-1,
|-1,19,-1,20,-1,13,-1,-1,-1,-1,-1,-1,-1,-1,
|18,3,-1,20,-1,-1,-1,13,-1,-1,-1,-1,14,9,
|-1,-1,-1,-1,5,6,17,-1,9,-1,-1,-1,13,-1,
|-1,14,0,5,1,10,20,6,9,3,-1,19,3,-1,
|-1,-1,6,-1,-1,-1,-1,7,14,-1,-1,-1,-1,-1,
|-1,-1,1,16,-1,8,-1,0,-1,-1,7,19,-1,-1,
|-1,12,-1,-1,-1,-1,3,17,-1,-1,11,-1,-1,-1,
|]
;